p tw 40 56
e 0 5
e 0 15
e 0 17
e 0 25
e 0 36
e 1 11
e 1 21
e 1 27
e 2 5
e 2 16
e 2 17
e 2 25
e 2 26
e 2 33
e 2 37
e 3 9
e 3 31
e 3 34
e 4 9
e 5 13
e 6 13
e 6 18
e 6 23
e 7 13
e 7 19
e 7 37
e 8 38
e 9 16
e 9 26
e 10 13
e 10 18
e 11 22
e 11 31
e 12 13
e 12 19
e 12 21
e 13 14
e 13 15
e 13 37
e 16 22
e 19 23
e 19 38
e 20 31
e 21 22
e 22 28
e 23 29
e 23 34
e 23 35
e 24 30
e 26 28
e 26 38
e 28 39
e 29 33
e 30 36
e 32 37
e 38 39
